2-dimensional/CL_05_25_02.vbp
2
1000 1000 
25
31 79 30
89 29 72
80 34 4
47 36 88
56 75 54
49 69 64
67 35 90
28 88 26
97 71 94
92 76 28
79 68 72
74 40 49
46 83 54
59 90 19
56 51 28
79 58 61
44 78 84
42 28 23
41 75 67
33 34 53
33 48 54
84 58 16
26 31 9
28 34 54
55 83 77
