datasets/2-dimensional/CL_05_25_02.txt
1000 1000 
0 30 31 79 
1 72 89 29 
2 4 80 34 
3 88 47 36 
4 54 56 75 
5 64 49 69 
6 90 67 35 
7 26 28 88 
8 94 97 71 
9 28 92 76 
10 72 79 68 
11 49 74 40 
12 54 46 83 
13 19 59 90 
14 28 56 51 
15 61 79 58 
16 84 44 78 
17 23 42 28 
18 67 41 75 
19 53 33 34 
20 54 33 48 
21 16 84 58 
22 9 26 31 
23 54 28 34 
24 77 55 83 
